unknown
(model
; cardinality of BoundSet is 3
(declare-sort BoundSet 0)
; rep: @uc_BoundSet_0
; rep: @uc_BoundSet_1
; rep: @uc_BoundSet_2
; cardinality of UnboundSet is 1
(declare-sort UnboundSet 0)
(declare-fun groundTerm_4 () UnboundSet)
(define-fun WaitsToUse ((BOUND_VARIABLE_385 BoundSet) (BOUND_VARIABLE_386 BoundSet)) Bool true)
(define-fun IsInField ((BOUND_VARIABLE_385 BoundSet) (BOUND_VARIABLE_386 BoundSet)) Bool true)
(define-fun IsOutside ((BOUND_VARIABLE_395 BoundSet)) Bool false)
)
sat
(model
; cardinality of BoundSet is 1
(declare-sort BoundSet 0)
; rep: @uc_BoundSet_0
; cardinality of UnboundSet is 1
(declare-sort UnboundSet 0)
(declare-fun groundTerm_6 () UnboundSet)
(define-fun WaitsToUse ((BOUND_VARIABLE_420 BoundSet) (BOUND_VARIABLE_421 BoundSet)) Bool true)
(define-fun IsInField ((BOUND_VARIABLE_420 BoundSet) (BOUND_VARIABLE_421 BoundSet)) Bool true)
(define-fun IsOutside ((BOUND_VARIABLE_427 BoundSet)) Bool false)
)
